
Gurobi 11.0.3 (mac64[arm]) logging started Tue Feb 18 21:20:56 2025


Gurobi 11.0.3 (mac64[arm]) logging started Tue Feb 18 21:20:56 2025


Gurobi 11.0.3 (mac64[arm]) logging started Wed Feb 19 09:53:57 2025


Gurobi 11.0.3 (mac64[arm]) logging started Wed Feb 19 09:53:57 2025


Gurobi 11.0.3 (mac64[arm]) logging started Wed Feb 19 09:55:20 2025


Gurobi 11.0.3 (mac64[arm]) logging started Wed Feb 19 09:55:20 2025


Gurobi 11.0.3 (mac64[arm]) logging started Wed Feb 19 10:47:52 2025


Gurobi 11.0.3 (mac64[arm]) logging started Wed Feb 19 10:47:52 2025


Gurobi 11.0.3 (mac64[arm]) logging started Wed Feb 19 11:09:26 2025


Gurobi 11.0.3 (mac64[arm]) logging started Wed Feb 19 11:09:26 2025


Gurobi 11.0.3 (mac64[arm]) logging started Wed Feb 19 11:09:41 2025


Gurobi 11.0.3 (mac64[arm]) logging started Wed Feb 19 11:09:41 2025


Gurobi 11.0.3 (mac64[arm]) logging started Wed Feb 19 11:10:05 2025


Gurobi 11.0.3 (mac64[arm]) logging started Wed Feb 19 11:10:05 2025


Gurobi 11.0.3 (mac64[arm]) logging started Wed Feb 19 11:10:31 2025


Gurobi 11.0.3 (mac64[arm]) logging started Wed Feb 19 11:10:31 2025


Gurobi 11.0.3 (mac64[arm]) logging started Wed Feb 19 11:11:13 2025


Gurobi 11.0.3 (mac64[arm]) logging started Wed Feb 19 11:11:13 2025


Gurobi 11.0.3 (mac64[arm]) logging started Wed Feb 19 11:11:55 2025


Gurobi 11.0.3 (mac64[arm]) logging started Wed Feb 19 11:11:55 2025


Gurobi 11.0.3 (mac64[arm]) logging started Wed Feb 19 11:12:17 2025


Gurobi 11.0.3 (mac64[arm]) logging started Wed Feb 19 11:12:17 2025


Gurobi 11.0.3 (mac64[arm]) logging started Wed Feb 19 11:13:09 2025


Gurobi 11.0.3 (mac64[arm]) logging started Wed Feb 19 11:13:09 2025


Gurobi 11.0.3 (mac64[arm]) logging started Wed Feb 19 11:18:53 2025


Gurobi 11.0.3 (mac64[arm]) logging started Wed Feb 19 11:18:53 2025


Gurobi 11.0.3 (mac64[arm]) logging started Wed Feb 19 11:19:09 2025


Gurobi 11.0.3 (mac64[arm]) logging started Wed Feb 19 11:19:09 2025


Gurobi 11.0.3 (mac64[arm]) logging started Wed Feb 19 11:20:14 2025


Gurobi 11.0.3 (mac64[arm]) logging started Wed Feb 19 11:20:14 2025


Gurobi 11.0.3 (mac64[arm]) logging started Wed Feb 19 11:22:41 2025


Gurobi 11.0.3 (mac64[arm]) logging started Wed Feb 19 11:22:41 2025


Gurobi 11.0.3 (mac64[arm]) logging started Wed Feb 19 11:22:58 2025


Gurobi 11.0.3 (mac64[arm]) logging started Wed Feb 19 11:22:58 2025


Gurobi 11.0.3 (mac64[arm]) logging started Wed Feb 19 11:24:10 2025


Gurobi 11.0.3 (mac64[arm]) logging started Wed Feb 19 11:24:10 2025


Gurobi 11.0.3 (mac64[arm]) logging started Wed Feb 19 11:29:38 2025


Gurobi 11.0.3 (mac64[arm]) logging started Wed Feb 19 11:29:38 2025


Gurobi 11.0.3 (mac64[arm]) logging started Wed Feb 19 11:32:30 2025


Gurobi 11.0.3 (mac64[arm]) logging started Wed Feb 19 11:32:30 2025


Gurobi 11.0.3 (mac64[arm]) logging started Wed Feb 19 11:33:08 2025


Gurobi 11.0.3 (mac64[arm]) logging started Wed Feb 19 11:33:08 2025


Gurobi 11.0.3 (mac64[arm]) logging started Wed Feb 19 13:31:04 2025


Gurobi 11.0.3 (mac64[arm]) logging started Wed Feb 19 13:31:04 2025


Gurobi 11.0.3 (mac64[arm]) logging started Wed Feb 19 13:33:10 2025


Gurobi 11.0.3 (mac64[arm]) logging started Wed Feb 19 13:33:10 2025


Gurobi 11.0.3 (mac64[arm]) logging started Wed Feb 19 13:33:20 2025


Gurobi 11.0.3 (mac64[arm]) logging started Wed Feb 19 13:33:20 2025


Gurobi 11.0.3 (mac64[arm]) logging started Wed Feb 19 13:34:27 2025


Gurobi 11.0.3 (mac64[arm]) logging started Wed Feb 19 13:34:27 2025


Gurobi 11.0.3 (mac64[arm]) logging started Wed Feb 19 17:03:43 2025


Gurobi 11.0.3 (mac64[arm]) logging started Wed Feb 19 17:03:43 2025


Gurobi 11.0.3 (mac64[arm]) logging started Wed Feb 19 17:04:09 2025


Gurobi 11.0.3 (mac64[arm]) logging started Wed Feb 19 17:04:09 2025


Gurobi 11.0.3 (mac64[arm]) logging started Wed Feb 19 18:06:02 2025


Gurobi 11.0.3 (mac64[arm]) logging started Wed Feb 19 18:06:02 2025


Gurobi 11.0.3 (mac64[arm]) logging started Thu Feb 20 13:07:47 2025


Gurobi 11.0.3 (mac64[arm]) logging started Thu Feb 20 13:07:47 2025


Gurobi 11.0.3 (mac64[arm]) logging started Thu Feb 20 13:12:29 2025


Gurobi 11.0.3 (mac64[arm]) logging started Thu Feb 20 13:12:29 2025


Gurobi 11.0.3 (mac64[arm]) logging started Thu Feb 20 13:14:45 2025


Gurobi 11.0.3 (mac64[arm]) logging started Thu Feb 20 13:14:45 2025


Gurobi 11.0.3 (mac64[arm]) logging started Thu Feb 20 13:15:25 2025


Gurobi 11.0.3 (mac64[arm]) logging started Thu Feb 20 13:15:25 2025


Gurobi 11.0.3 (mac64[arm]) logging started Thu Feb 20 13:15:33 2025


Gurobi 11.0.3 (mac64[arm]) logging started Thu Feb 20 13:15:33 2025


Gurobi 11.0.3 (mac64[arm]) logging started Thu Feb 20 13:16:22 2025


Gurobi 11.0.3 (mac64[arm]) logging started Thu Feb 20 13:16:22 2025


Gurobi 11.0.3 (mac64[arm]) logging started Thu Feb 20 13:17:05 2025


Gurobi 11.0.3 (mac64[arm]) logging started Thu Feb 20 13:17:05 2025


Gurobi 11.0.3 (mac64[arm]) logging started Thu Feb 20 13:22:58 2025


Gurobi 11.0.3 (mac64[arm]) logging started Thu Feb 20 13:22:58 2025


Gurobi 11.0.3 (mac64[arm]) logging started Thu Feb 20 13:51:49 2025


Gurobi 11.0.3 (mac64[arm]) logging started Thu Feb 20 13:51:49 2025


Gurobi 11.0.3 (mac64[arm]) logging started Thu Feb 20 13:58:49 2025


Gurobi 11.0.3 (mac64[arm]) logging started Thu Feb 20 13:58:49 2025


Gurobi 11.0.3 (mac64[arm]) logging started Thu Feb 20 14:04:40 2025


Gurobi 11.0.3 (mac64[arm]) logging started Thu Feb 20 14:04:40 2025


Gurobi 11.0.3 (mac64[arm]) logging started Thu Feb 20 14:22:04 2025


Gurobi 11.0.3 (mac64[arm]) logging started Thu Feb 20 14:22:04 2025


Gurobi 11.0.3 (mac64[arm]) logging started Thu Feb 20 14:23:12 2025


Gurobi 11.0.3 (mac64[arm]) logging started Thu Feb 20 14:23:12 2025


Gurobi 11.0.3 (mac64[arm]) logging started Thu Feb 20 14:29:01 2025


Gurobi 11.0.3 (mac64[arm]) logging started Thu Feb 20 14:29:01 2025


Gurobi 11.0.3 (mac64[arm]) logging started Thu Feb 20 14:49:24 2025


Gurobi 11.0.3 (mac64[arm]) logging started Thu Feb 20 14:49:24 2025


Gurobi 11.0.3 (mac64[arm]) logging started Thu Feb 20 14:52:11 2025


Gurobi 11.0.3 (mac64[arm]) logging started Thu Feb 20 14:52:11 2025


Gurobi 11.0.3 (mac64[arm]) logging started Sun Feb 23 11:44:08 2025


Gurobi 11.0.3 (mac64[arm]) logging started Sun Feb 23 11:44:08 2025


Gurobi 11.0.3 (mac64[arm]) logging started Sun Feb 23 11:44:08 2025


Gurobi 11.0.3 (mac64[arm]) logging started Sun Feb 23 11:45:29 2025


Gurobi 11.0.3 (mac64[arm]) logging started Sun Feb 23 11:45:29 2025


Gurobi 11.0.3 (mac64[arm]) logging started Sun Feb 23 11:45:29 2025


Gurobi 11.0.3 (mac64[arm]) logging started Sun Feb 23 11:46:31 2025


Gurobi 11.0.3 (mac64[arm]) logging started Sun Feb 23 11:46:31 2025


Gurobi 11.0.3 (mac64[arm]) logging started Sun Feb 23 11:46:31 2025


Gurobi 11.0.3 (mac64[arm]) logging started Sun Feb 23 11:46:47 2025


Gurobi 11.0.3 (mac64[arm]) logging started Sun Feb 23 11:46:47 2025


Gurobi 11.0.3 (mac64[arm]) logging started Sun Feb 23 11:46:47 2025


Gurobi 11.0.3 (mac64[arm]) logging started Sun Feb 23 11:47:45 2025


Gurobi 11.0.3 (mac64[arm]) logging started Sun Feb 23 11:47:45 2025


Gurobi 11.0.3 (mac64[arm]) logging started Sun Feb 23 11:47:45 2025


Gurobi 11.0.3 (mac64[arm]) logging started Sun Feb 23 11:49:03 2025


Gurobi 11.0.3 (mac64[arm]) logging started Sun Feb 23 11:49:03 2025


Gurobi 11.0.3 (mac64[arm]) logging started Sun Feb 23 11:49:03 2025


Gurobi 11.0.3 (mac64[arm]) logging started Sun Feb 23 11:50:35 2025


Gurobi 11.0.3 (mac64[arm]) logging started Sun Feb 23 11:50:35 2025


Gurobi 11.0.3 (mac64[arm]) logging started Sun Feb 23 11:50:35 2025


Gurobi 11.0.3 (mac64[arm]) logging started Sun Feb 23 11:50:43 2025


Gurobi 11.0.3 (mac64[arm]) logging started Sun Feb 23 11:50:43 2025


Gurobi 11.0.3 (mac64[arm]) logging started Sun Feb 23 11:50:43 2025


Gurobi 11.0.3 (mac64[arm]) logging started Sun Feb 23 11:52:07 2025


Gurobi 11.0.3 (mac64[arm]) logging started Sun Feb 23 11:52:07 2025


Gurobi 11.0.3 (mac64[arm]) logging started Sun Feb 23 11:52:07 2025


Gurobi 11.0.3 (mac64[arm]) logging started Sun Feb 23 11:56:20 2025


Gurobi 11.0.3 (mac64[arm]) logging started Sun Feb 23 11:56:20 2025


Gurobi 11.0.3 (mac64[arm]) logging started Sun Feb 23 11:56:20 2025


Gurobi 11.0.3 (mac64[arm]) logging started Sun Feb 23 11:57:50 2025


Gurobi 11.0.3 (mac64[arm]) logging started Sun Feb 23 11:57:50 2025


Gurobi 11.0.3 (mac64[arm]) logging started Sun Feb 23 11:57:50 2025


Gurobi 11.0.3 (mac64[arm]) logging started Sun Feb 23 11:58:10 2025


Gurobi 11.0.3 (mac64[arm]) logging started Sun Feb 23 11:58:10 2025


Gurobi 11.0.3 (mac64[arm]) logging started Sun Feb 23 11:58:10 2025


Gurobi 11.0.3 (mac64[arm]) logging started Sun Feb 23 12:07:08 2025


Gurobi 11.0.3 (mac64[arm]) logging started Sun Feb 23 12:07:08 2025


Gurobi 11.0.3 (mac64[arm]) logging started Sun Feb 23 12:07:08 2025

